instances/p2/p2_10_5-3.dzn
Alphabet = {A,C,G,T};
ns = 10;
nc = 5;
neighbours = [| I(T),I(G),I(T),I(A),Null | Null,Null,Null,Null,Null | I(C),I(G),Null,Null,Null | Null,Null,Null,Null,Null | I(T),I(C),I(G),I(T),Null | I(A),I(G),I(A),I(A),I(C) | I(A),I(A),I(A),I(A),Null | I(A),I(T),Null,Null,Null | I(C),I(T),I(A),I(C),Null | I(T),I(A),I(G),I(T),I(G) |];
